sat
(:max-memory         18.06
 :memory             17.93
 :nlsat-decisions    1
 :nlsat-propagations 11
 :nlsat-stages       5
 :num-allocs         6142
 :rlimit-count       2367
 :time               0.00
 :total-time         0.01)
